Copyright (C) 2013-2015, Filipe Brandao
Build (method = -2)
  #dp: 1332
  Step-3' Graph: 44 vertices and 505 arcs (0.00s)
  Step-4' Graph: 44 vertices and 505 arcs (0.00s)
  #V4/#V3 = 1.00
  #A4/#A3 = 1.00
Ready! (0.00s)
Optimize a model with 75 rows, 506 columns and 1443 nonzeros
Found heuristic solution: objective 513
Presolve removed 12 rows and 12 columns
Presolve time: 0.00s
Presolved: 63 rows, 494 columns, 1409 nonzeros
Variable types: 0 continuous, 494 integer (0 binary)
Optimize a model with 63 rows, 494 columns and 1409 nonzeros
Presolved: 63 rows, 494 columns, 1409 nonzeros

Root barrier log...

Ordering time: 0.00s

Barrier statistics:
 AA' NZ     : 9.070e+02
 Factor NZ  : 1.520e+03
 Factor Ops : 4.813e+04 (less than 1 second per iteration)
 Threads    : 1

                  Objective                Residual
Iter       Primal          Dual         Primal    Dual     Compl     Time
   0   4.77318717e+03 -1.53587680e+04  1.70e+04 2.22e-16  1.02e+02     0s
   1   1.51745039e+03 -6.84149697e+03  2.53e+03 4.44e-16  1.90e+01     0s
   2   7.20578053e+02 -1.81566584e+03  8.80e+01 4.68e-03  2.74e+00     0s
   3   4.90986020e+02 -3.22266470e+02  3.90e-01 7.40e-04  8.07e-01     0s
   4   3.69821564e+02  6.68907177e+01  1.19e-01 5.55e-16  3.00e-01     0s
   5   3.26404544e+02  1.92077374e+02  5.79e-02 2.53e-16  1.33e-01     0s
   6   3.16872057e+02  2.39258012e+02  4.04e-02 2.22e-16  7.69e-02     0s
   7   3.13445829e+02  2.54992357e+02  3.16e-02 2.22e-16  5.79e-02     0s
   8   3.04499601e+02  2.83008693e+02  9.56e-03 3.33e-16  2.13e-02     0s
   9   3.00629445e+02  2.93785449e+02  3.91e-03 3.33e-16  6.78e-03     0s
  10   2.98658594e+02  2.97925285e+02  3.11e-04 2.91e-16  7.27e-04     0s
  11   2.98420313e+02  2.98419430e+02  2.56e-13 2.50e-16  8.75e-07     0s
  12   2.98420000e+02  2.98419999e+02  3.98e-13 3.33e-16  8.75e-10     0s
  13   2.98420000e+02  2.98420000e+02  1.30e-12 2.22e-16  9.29e-16     0s

Barrier solved model in 13 iterations and 0.00 seconds
Optimal objective 2.98420000e+02


Root relaxation: objective 2.984200e+02, 291 iterations, 0.00 seconds

    Nodes    |    Current Node    |     Objective Bounds      |     Work
 Expl Unexpl |  Obj  Depth IntInf | Incumbent    BestBd   Gap | It/Node Time

     0     0  298.42000    0   16  513.00000  298.42000  41.8%     -    0s
H    0     0                     299.0000000  298.42000  0.19%     -    0s

Explored 0 nodes (386 simplex iterations) in 0.01 seconds
Thread count was 1 (of 4 available processors)

Optimal solution found (tolerance 0.00e+00)
Best objective 2.990000000000e+02, best bound 2.990000000000e+02, gap 0.0%
Preprocessing time: 0.00 seconds
Gurobi run time: 0.01 seconds
Total run time: 0.01 seconds
Objective: 299
Solution:
21 x [i=1, i=21]
19 x [i=2, i=20]
3 x [i=2, i=26, i=30]
16 x [i=3, i=19]
15 x [i=4, i=18]
7 x [i=4, i=24, i=30]
19 x [i=5, i=17]
9 x [i=6, i=24, i=28]
19 x [i=6, i=25, i=27]
24 x [i=7, i=15]
8 x [i=7, i=22, i=29]
12 x [i=8, i=14]
11 x [i=8, i=20, i=30]
4 x [i=8, i=21, i=29]
1 x [i=8, i=24, i=26]
1 x [i=8, i=26, i=30]
23 x [i=9, i=13]
20 x [i=10, i=12]
8 x [i=10, i=22, i=26]
6 x [i=11, i=25, i=29, i=29]
10 x [i=11, i=11]
3 x [i=12, i=23, i=23]
7 x [i=13, i=22, i=23]
9 x [i=14, i=18, i=31, i=31]
3 x [i=16, i=18, i=24]
3 x [i=16, i=22, i=26, i=30]
1 x [i=16, i=24]
1 x [i=16, i=16, i=26]
1 x [i=16, i=16, i=31]
3 x [i=16, i=16, i=31, i=31]
2 x [i=17, i=22, i=26, i=29]
10 x [i=19, i=23, i=24, i=28]
